c Random 3-CNF over 22 variables and 110 clauses
c Generated with `cnfgen`
c (C) 2012-2018 Massimo Lauria <lauria.massimo@gmail.com>
c https://massimolauria.github.io/cnfgen
c
c COMMAND LINE: cnfgen randkcnf 3 22 110
c
p cnf 22 110
3 -12 21 0
-4 -9 -17 0
6 16 -22 0
1 11 -21 0
-16 -17 -21 0
3 12 16 0
-5 -13 17 0
-11 16 -18 0
-7 -11 15 0
-9 13 -15 0
-17 -18 -19 0
2 8 -22 0
-8 -10 14 0
-1 -19 21 0
-8 -9 18 0
-6 -8 -18 0
-3 6 -15 0
-2 8 20 0
11 16 17 0
-5 14 -21 0
-2 4 6 0
5 8 13 0
-2 7 -20 0
5 8 15 0
5 12 21 0
4 8 13 0
4 9 15 0
1 2 -16 0
-7 -10 -22 0
-14 -15 -18 0
-3 16 -21 0
-8 -9 15 0
4 -9 19 0
-6 17 21 0
-4 -9 19 0
2 -18 -21 0
5 -9 -19 0
-1 2 -14 0
9 10 14 0
-3 -8 13 0
-6 8 -13 0
9 -11 12 0
-5 -11 17 0
1 -2 15 0
3 15 -16 0
-4 -11 -17 0
-1 4 19 0
8 -19 21 0
8 -9 15 0
2 5 -15 0
8 -11 -20 0
-8 11 -18 0
7 16 21 0
3 -8 12 0
-8 -11 14 0
-5 8 18 0
12 -17 21 0
-4 -16 -21 0
3 7 -11 0
6 15 21 0
-4 -8 -20 0
-4 7 11 0
-2 10 -12 0
-1 3 -17 0
-1 5 -20 0
18 -21 22 0
1 -3 13 0
-16 19 20 0
-1 -2 11 0
8 9 14 0
-2 -12 17 0
3 -7 16 0
-3 -7 21 0
-11 -16 20 0
10 -16 21 0
-4 5 -11 0
6 12 -17 0
-8 -17 18 0
-2 19 21 0
10 15 -21 0
-6 11 15 0
-5 -12 18 0
-5 -8 -14 0
11 -16 -20 0
-3 5 -10 0
-8 17 -18 0
1 -10 22 0
11 15 -16 0
-17 -18 21 0
-1 6 -20 0
-5 13 -22 0
15 -17 -20 0
9 12 -14 0
-7 14 -15 0
-2 6 15 0
-4 6 11 0
11 14 15 0
-7 -8 -19 0
-7 14 -22 0
-1 17 22 0
-1 11 13 0
11 15 19 0
2 12 -22 0
-4 8 -11 0
9 -14 19 0
-13 16 -17 0
10 15 -22 0
-4 5 -6 0
-12 14 18 0
3 -18 -22 0